
Gurobi 10.0.1 (win64) logging started Sat Sep 16 16:57:28 2023

Set parameter LogFile to value "./results-heuristic-start//log/Fattahi_setup_13_modified_old_makespan.log"
Gurobi Optimizer version 10.0.1 build v10.0.1rc0 (win64)

CPU model: AMD Ryzen 7 3700X 8-Core Processor, instruction set [SSE2|AVX|AVX2]
Thread count: 8 physical cores, 16 logical processors, using up to 16 threads

Optimize a model with 466 rows, 421 columns and 1972 nonzeros
Model fingerprint: 0x68a8256f
Variable types: 48 continuous, 373 integer (372 binary)
Coefficient statistics:
  Matrix range     [1e+00, 1e+06]
  Objective range  [1e+00, 1e+00]
  Bounds range     [1e+00, 1e+00]
  RHS range        [1e+00, 3e+06]

Warning: Completing partial solution with 355 unfixed non-continuous variables out of 373
User MIP start did not produce a new incumbent solution
User MIP start violates constraint initial_start_time_job0_stage0_machine2_constraint by 420.000000000

Presolve removed 54 rows and 219 columns
Presolve time: 0.01s
Presolved: 412 rows, 202 columns, 1894 nonzeros
Variable types: 48 continuous, 154 integer (153 binary)
Found heuristic solution: objective 18785.000000

Root relaxation: objective 4.867000e+03, 117 iterations, 0.00 seconds (0.00 work units)

    Nodes    |    Current Node    |     Objective Bounds      |     Work
 Expl Unexpl |  Obj  Depth IntInf | Incumbent    BestBd   Gap | It/Node Time

     0     0 4867.00000    0   26 18785.0000 4867.00000  74.1%     -    0s
Another try with MIP start
H    0     0                    10552.000000 4867.00000  53.9%     -    0s
H    0     0                    10126.000000 4867.00000  51.9%     -    0s
H    0     0                    9878.0000000 4932.00000  50.1%     -    0s
     0     0 4932.00000    0   27 9878.00000 4932.00000  50.1%     -    0s
     0     0 4933.04600    0   24 9878.00000 4933.04600  50.1%     -    0s
     0     0 4936.00000    0   31 9878.00000 4936.00000  50.0%     -    0s
H    0     0                    9869.0000000 4936.00000  50.0%     -    0s
     0     0 4936.00000    0   32 9869.00000 4936.00000  50.0%     -    0s
     0     0 4936.00000    0   32 9869.00000 4936.00000  50.0%     -    0s
     0     0 4938.00000    0   31 9869.00000 4938.00000  50.0%     -    0s
H    0     0                    9867.0000000 4938.00000  50.0%     -    0s
     0     0 4938.41515    0   30 9867.00000 4938.41515  50.0%     -    0s
     0     0 4938.41515    0   30 9867.00000 4938.41515  50.0%     -    0s
     0     0 4938.41515    0   30 9867.00000 4938.41515  50.0%     -    0s
     0     0 4940.29189    0   30 9867.00000 4940.29189  49.9%     -    0s
H    0     0                    9866.0000000 4940.29189  49.9%     -    0s
H    0     0                    9565.0000000 4940.29189  48.4%     -    0s
     0     0 4940.53955    0   30 9565.00000 4940.53955  48.3%     -    0s
     0     0 4940.53955    0   31 9565.00000 4940.53955  48.3%     -    0s
     0     0 4942.00000    0   30 9565.00000 4942.00000  48.3%     -    0s
     0     0 4942.00000    0   28 9565.00000 4942.00000  48.3%     -    0s
H    0     0                    9391.0000000 4942.00000  47.4%     -    0s
     0     1 4942.00000    0   28 9391.00000 4942.00000  47.4%     -    0s
H   30    24                    9389.0000000 4942.00000  47.4%  25.6    0s
H   31    24                    9230.0000000 4942.00000  46.5%  27.7    0s
H   61    55                    9228.0000000 4942.00000  46.4%  18.0    0s
H   63    55                    9185.0000000 4942.00000  46.2%  17.7    0s
H  116    98                    9164.0000000 4942.00000  46.1%  12.5    0s
H  260   202                    8823.0000000 4942.00000  44.0%   8.8    0s
H  267   202                    8802.0000000 4942.00000  43.9%   8.8    0s
H  316   207                    8794.0000000 4942.00000  43.8%   8.3    0s
H  317   207                    8624.0000000 4942.00000  42.7%   8.3    0s
H  319   207                    8416.0000000 4942.00000  41.3%   8.2    0s
H  320   207                    8290.0000000 4942.00000  40.4%   8.3    0s
H  397   287                    8198.0000000 4942.00000  39.7%   7.9    0s
H  704   496                    7989.0000000 4942.00000  38.1%   7.0    0s
H 2044  1275                    7988.0000000 5019.50000  37.2%   5.9    0s
H 3450  1777                    7684.0000000 5059.83278  34.2%   5.4    0s
H 3452  1685                    7495.0000000 5059.83278  32.5%   5.4    0s
 82639 29652 6510.79167   56   28 7495.00000 5930.99566  20.9%   6.2    5s
H101796 24028                    7247.0000000 6031.44925  16.8%   6.6    6s
 150206 24542 6547.11001   69   16 7247.00000 6316.72375  12.8%   8.7   10s
 201592 22088 6768.59947   69   14 7247.00000 6543.00000  9.71%  10.2   15s
 254857 13217 6874.61786   67   11 7247.00000 6844.70323  5.55%  10.6   20s

Cutting planes:
  Learned: 98
  Gomory: 153
  Implied bound: 7
  MIR: 194
  Flow cover: 297
  Relax-and-lift: 13

Explored 286630 nodes (3021159 simplex iterations) in 23.67 seconds (16.17 work units)
Thread count was 16 (of 16 available processors)

Solution count 10: 7247 7247 7495 ... 8624

Optimal solution found (tolerance 1.00e-04)
Best objective 7.247000000000e+03, best bound 7.247000000000e+03, gap 0.0000%
Warning: constraint name "precedence between 0,1 to 0,0 if x_[j,l,h,z,i]=1" has a space
Warning: constraint name "precedence between 0,1 to 0,0 if x_[j,l,h,z,i]=1" has a space
Warning: default constraint names used to write mps file
